NPROCS=0
This instance is clustered!
Gurobi Optimizer version 9.0.0 build v9.0.0rc2 (linux64)
Optimize a model with 22 rows, 122 columns and 242 nonzeros
Model fingerprint: 0x08fa62f0
Variable types: 1 continuous, 121 integer (121 binary)
Coefficient statistics:
  Matrix range     [1e+00, 1e+00]
  Objective range  [1e+00, 9e+01]
  Bounds range     [1e+00, 1e+00]
  RHS range        [1e+00, 1e+00]
Presolve removed 2 rows and 30 columns
Presolve time: 0.00s
Presolved: 20 rows, 92 columns, 182 nonzeros
Variable types: 1 continuous, 91 integer (91 binary)

Root relaxation: objective 1.369302e+02, 18 iterations, 0.00 seconds
 done with super cut 0

    Nodes    |    Current Node    |     Objective Bounds      |     Work
 Expl Unexpl |  Obj  Depth IntInf | Incumbent    BestBd   Gap | It/Node Time

     0     0  163.29473    0   17          -  163.29473      -     -    0s
 done with super cut 1
 done with super cut 2
H    0     0                     270.2146803  163.29473  39.6%     -    0s
 done with super cut 3
 done with super cut 4
H    0     0                     173.9841325  163.29473  6.14%     -    0s
     0     0  166.34250    0   23  173.98413  166.34250  4.39%     -    0s
     0     0  166.34250    0   14  173.98413  166.34250  4.39%     -    0s
 done with super cut 5
     0     0  167.71455    0   13  173.98413  167.71455  3.60%     -    0s
 done with super cut 6
H    0     0                     173.7230626  167.71455  3.46%     -    0s
     0     0  168.62206    0   15  173.72306  168.62206  2.94%     -    0s
     0     0  170.25865    0   16  173.72306  170.25865  1.99%     -    0s
 done with super cut 7
 done with super cut 8
     0     0  170.89914    0   19  173.72306  170.89914  1.63%     -    0s
     0     0  171.08730    0   15  173.72306  171.08730  1.52%     -    0s
     0     0  171.45343    0    8  173.72306  171.45343  1.31%     -    0s
     0     0  171.45343    0    8  173.72306  171.45343  1.31%     -    0s
 done with super cut 9
 done with super cut 10
     0     0  171.45343    0    7  173.72306  171.45343  1.31%     -    0s
     0     0  172.44529    0    6  173.72306  172.44529  0.74%     -    0s
     0     0  173.09199    0    7  173.72306  173.09199  0.36%     -    0s
     0     0  173.18881    0    7  173.72306  173.18881  0.31%     -    0s
     0     0  173.19358    0    7  173.72306  173.19358  0.30%     -    0s
     0     0  173.19533    0    7  173.72306  173.19533  0.30%     -    0s
     0     0  173.19789    0    7  173.72306  173.19789  0.30%     -    0s
     0     0  173.19930    0    7  173.72306  173.19930  0.30%     -    0s
     0     0  173.23076    0    7  173.72306  173.23076  0.28%     -    0s
     0     0  173.64512    0    2  173.72306  173.64512  0.04%     -    0s

Cutting planes:
  Gomory: 1
  MIR: 1

Explored 1 nodes (112 simplex iterations) in 0.91 seconds
Thread count was 12 (of 12 available processors)

Solution count 3: 173.723 173.984 270.215 

Optimal solution found (tolerance 1.00e-04)
Best objective 1.737230626384e+02, best bound 1.737230626384e+02, gap 0.0000%

User-callback calls 160, time in user-callback 0.87 sec
/projects/academic/josewalt/caigao/RRARP_BD/BendersDecomp/ret/model_outs/n_9_e_10_algo_4.out
 =====>>>>> Solution is written to file in <../ret/model_outs> !!!
===>> All Done!
